-268.0 6.0 9.0 1.0 1.0 9.0 0.0 10.0 2.0 9.0 6.0 5.0 3.0 7.0 9.0 2.0 2.0 8.0 10.0 5.0 4.0 2.0 10.0 1.0 4.0 0.0 1.0 2.0 3.0 3.0 1.0 2.0 9.0 9.0 1.0 4.0 8.0 3.0 5.0 9.0 7.0 3.0 5.0 9.0 9.0 6.0 0.0 0.0 10.0 7.0 6.0 4.0 10.0 4.0 3.0 
6.0 -283.0 7.0 6.0 3.0 1.0 3.0 9.0 6.0 8.0 10.0 10.0 5.0 9.0 7.0 5.0 5.0 6.0 9.0 7.0 7.0 2.0 6.0 7.0 8.0 7.0 10.0 5.0 3.0 3.0 1.0 10.0 4.0 4.0 3.0 8.0 2.0 9.0 9.0 5.0 9.0 8.0 4.0 4.0 3.0 3.0 7.0 2.0 8.0 0.0 0.0 0.0 0.0 0.0 0.0 
9.0 7.0 -277.0 5.0 8.0 6.0 6.0 5.0 4.0 4.0 10.0 8.0 4.0 9.0 7.0 4.0 9.0 6.0 5.0 5.0 2.0 3.0 10.0 3.0 9.0 2.0 10.0 10.0 7.0 5.0 10.0 1.0 3.0 0.0 2.0 2.0 8.0 1.0 6.0 2.0 6.0 0.0 5.0 2.0 1.0 6.0 6.0 1.0 9.0 5.0 0.0 2.0 1.0 7.0 9.0 
1.0 6.0 5.0 -242.0 5.0 0.0 1.0 10.0 0.0 10.0 0.0 0.0 3.0 4.0 3.0 2.0 9.0 1.0 9.0 4.0 5.0 7.0 8.0 4.0 10.0 1.0 0.0 5.0 3.0 6.0 3.0 9.0 6.0 6.0 6.0 3.0 0.0 10.0 9.0 5.0 2.0 7.0 0.0 7.0 4.0 0.0 5.0 5.0 4.0 9.0 4.0 5.0 4.0 7.0 0.0 
1.0 3.0 8.0 5.0 -248.0 8.0 4.0 1.0 2.0 9.0 5.0 1.0 8.0 0.0 3.0 10.0 1.0 10.0 10.0 1.0 5.0 1.0 7.0 5.0 1.0 5.0 0.0 5.0 1.0 1.0 6.0 1.0 8.0 3.0 1.0 8.0 5.0 2.0 6.0 2.0 2.0 3.0 0.0 6.0 4.0 8.0 9.0 10.0 3.0 7.0 9.0 7.0 7.0 10.0 0.0 
9.0 1.0 6.0 0.0 8.0 -294.0 10.0 4.0 8.0 3.0 9.0 0.0 5.0 10.0 7.0 9.0 10.0 7.0 0.0 4.0 10.0 8.0 3.0 10.0 6.0 5.0 3.0 3.0 0.0 10.0 7.0 6.0 8.0 10.0 3.0 0.0 6.0 9.0 4.0 3.0 9.0 2.0 9.0 4.0 10.0 3.0 2.0 7.0 0.0 2.0 8.0 5.0 0.0 7.0 2.0 
0.0 3.0 6.0 1.0 4.0 10.0 -240.0 9.0 0.0 9.0 5.0 2.0 10.0 4.0 5.0 2.0 9.0 7.0 5.0 5.0 1.0 0.0 3.0 5.0 10.0 5.0 8.0 10.0 6.0 3.0 1.0 2.0 9.0 0.0 9.0 0.0 10.0 2.0 7.0 1.0 10.0 1.0 8.0 7.0 0.0 0.0 1.0 4.0 8.0 4.0 1.0 6.0 0.0 2.0 0.0 
10.0 9.0 5.0 10.0 1.0 4.0 9.0 -263.0 9.0 1.0 2.0 0.0 3.0 3.0 6.0 1.0 8.0 10.0 8.0 4.0 0.0 9.0 0.0 8.0 1.0 2.0 9.0 7.0 3.0 10.0 2.0 7.0 2.0 7.0 2.0 5.0 7.0 9.0 7.0 3.0 2.0 6.0 2.0 1.0 0.0 10.0 1.0 9.0 0.0 7.0 1.0 6.0 5.0 6.0 4.0 
2.0 6.0 4.0 0.0 2.0 8.0 0.0 9.0 -270.0 3.0 6.0 10.0 4.0 0.0 1.0 9.0 9.0 5.0 6.0 4.0 5.0 1.0 5.0 8.0 5.0 6.0 4.0 8.0 2.0 1.0 9.0 0.0 4.0 4.0 2.0 9.0 9.0 3.0 4.0 6.0 10.0 6.0 7.0 6.0 2.0 10.0 8.0 4.0 3.0 7.0 1.0 5.0 9.0 3.0 6.0 
9.0 8.0 4.0 10.0 9.0 3.0 9.0 1.0 3.0 -294.0 8.0 5.0 10.0 6.0 4.0 3.0 1.0 0.0 8.0 7.0 8.0 9.0 8.0 7.0 2.0 8.0 5.0 9.0 0.0 7.0 3.0 9.0 0.0 3.0 6.0 7.0 3.0 0.0 10.0 0.0 3.0 1.0 9.0 0.0 10.0 6.0 7.0 6.0 0.0 10.0 7.0 1.0 4.0 8.0 10.0 
6.0 10.0 10.0 0.0 5.0 9.0 5.0 2.0 6.0 8.0 -284.0 10.0 9.0 6.0 4.0 4.0 4.0 4.0 10.0 1.0 6.0 8.0 2.0 9.0 6.0 0.0 9.0 10.0 7.0 4.0 4.0 1.0 4.0 3.0 3.0 0.0 9.0 7.0 10.0 1.0 1.0 5.0 3.0 0.0 3.0 4.0 7.0 6.0 9.0 3.0 2.0 7.0 2.0 10.0 6.0 
5.0 10.0 8.0 0.0 1.0 0.0 2.0 0.0 10.0 5.0 10.0 -296.0 6.0 3.0 8.0 10.0 6.0 7.0 7.0 7.0 4.0 0.0 4.0 6.0 1.0 10.0 5.0 6.0 3.0 2.0 10.0 10.0 2.0 8.0 10.0 5.0 7.0 2.0 1.0 8.0 0.0 6.0 9.0 7.0 10.0 7.0 4.0 1.0 5.0 9.0 8.0 2.0 6.0 3.0 10.0 
3.0 5.0 4.0 3.0 8.0 5.0 10.0 3.0 4.0 10.0 9.0 6.0 -300.0 10.0 4.0 8.0 8.0 0.0 4.0 10.0 10.0 0.0 5.0 6.0 4.0 6.0 7.0 2.0 10.0 2.0 1.0 0.0 7.0 2.0 1.0 10.0 4.0 6.0 9.0 2.0 10.0 2.0 4.0 6.0 8.0 7.0 7.0 3.0 7.0 5.0 8.0 2.0 10.0 6.0 7.0 
7.0 9.0 9.0 4.0 0.0 10.0 4.0 3.0 0.0 6.0 6.0 3.0 10.0 -299.0 6.0 9.0 10.0 0.0 0.0 10.0 5.0 9.0 1.0 10.0 5.0 9.0 5.0 0.0 7.0 1.0 0.0 1.0 8.0 6.0 10.0 6.0 2.0 8.0 5.0 2.0 10.0 7.0 5.0 7.0 6.0 5.0 9.0 3.0 10.0 7.0 6.0 7.0 1.0 0.0 10.0 
9.0 7.0 7.0 3.0 3.0 7.0 5.0 6.0 1.0 4.0 4.0 8.0 4.0 6.0 -268.0 7.0 8.0 10.0 7.0 5.0 6.0 8.0 2.0 5.0 1.0 5.0 1.0 0.0 10.0 2.0 7.0 6.0 6.0 7.0 1.0 4.0 1.0 1.0 10.0 0.0 0.0 7.0 7.0 4.0 5.0 1.0 0.0 1.0 10.0 6.0 9.0 5.0 7.0 6.0 6.0 
2.0 5.0 4.0 2.0 10.0 9.0 2.0 1.0 9.0 3.0 4.0 10.0 8.0 9.0 7.0 -281.0 6.0 0.0 9.0 5.0 0.0 4.0 6.0 8.0 3.0 0.0 10.0 4.0 9.0 2.0 3.0 1.0 4.0 7.0 10.0 4.0 3.0 1.0 4.0 2.0 9.0 8.0 10.0 1.0 10.0 6.0 2.0 0.0 2.0 10.0 6.0 8.0 7.0 7.0 5.0 
2.0 5.0 9.0 9.0 1.0 10.0 9.0 8.0 9.0 1.0 4.0 6.0 8.0 10.0 8.0 6.0 -312.0 9.0 7.0 10.0 0.0 9.0 10.0 6.0 8.0 10.0 1.0 3.0 4.0 6.0 7.0 8.0 0.0 5.0 9.0 7.0 3.0 6.0 7.0 6.0 4.0 3.0 8.0 6.0 0.0 8.0 3.0 4.0 7.0 7.0 3.0 6.0 0.0 4.0 3.0 
8.0 6.0 6.0 1.0 10.0 7.0 7.0 10.0 5.0 0.0 4.0 7.0 0.0 0.0 10.0 0.0 9.0 -282.0 2.0 3.0 4.0 2.0 10.0 3.0 9.0 4.0 5.0 10.0 6.0 1.0 8.0 1.0 10.0 10.0 6.0 1.0 9.0 9.0 3.0 0.0 0.0 5.0 10.0 10.0 8.0 0.0 2.0 8.0 5.0 6.0 6.0 5.0 2.0 6.0 3.0 
10.0 9.0 5.0 9.0 10.0 0.0 5.0 8.0 6.0 8.0 10.0 7.0 4.0 0.0 7.0 9.0 7.0 2.0 -281.0 5.0 6.0 9.0 4.0 2.0 1.0 0.0 4.0 2.0 5.0 7.0 7.0 3.0 6.0 4.0 10.0 4.0 6.0 6.0 10.0 3.0 3.0 5.0 1.0 3.0 2.0 5.0 9.0 0.0 1.0 4.0 3.0 5.0 10.0 4.0 6.0 
5.0 7.0 5.0 4.0 1.0 4.0 5.0 4.0 4.0 7.0 1.0 7.0 10.0 10.0 5.0 5.0 10.0 3.0 5.0 -236.0 1.0 8.0 2.0 0.0 1.0 3.0 3.0 3.0 2.0 6.0 1.0 4.0 2.0 1.0 0.0 10.0 9.0 6.0 5.0 0.0 3.0 6.0 6.0 3.0 9.0 4.0 5.0 9.0 3.0 3.0 3.0 2.0 1.0 4.0 6.0 
4.0 7.0 2.0 5.0 5.0 10.0 1.0 0.0 5.0 8.0 6.0 4.0 10.0 5.0 6.0 0.0 0.0 4.0 6.0 1.0 -237.0 3.0 3.0 7.0 9.0 10.0 6.0 1.0 7.0 0.0 2.0 9.0 1.0 1.0 4.0 4.0 3.0 8.0 1.0 9.0 2.0 1.0 8.0 2.0 3.0 3.0 0.0 9.0 6.0 3.0 3.0 5.0 9.0 3.0 3.0 
2.0 2.0 3.0 7.0 1.0 8.0 0.0 9.0 1.0 9.0 8.0 0.0 0.0 9.0 8.0 4.0 9.0 2.0 9.0 8.0 3.0 -299.0 7.0 0.0 2.0 10.0 5.0 1.0 9.0 9.0 9.0 8.0 8.0 8.0 9.0 10.0 2.0 3.0 0.0 9.0 7.0 6.0 10.0 7.0 0.0 2.0 3.0 10.0 10.0 8.0 5.0 8.0 2.0 1.0 9.0 
10.0 6.0 10.0 8.0 7.0 3.0 3.0 0.0 5.0 8.0 2.0 4.0 5.0 1.0 2.0 6.0 10.0 10.0 4.0 2.0 3.0 7.0 -245.0 4.0 5.0 1.0 3.0 2.0 1.0 5.0 9.0 5.0 0.0 8.0 8.0 2.0 3.0 2.0 8.0 9.0 1.0 6.0 2.0 5.0 3.0 1.0 4.0 1.0 1.0 4.0 4.0 10.0 6.0 6.0 0.0 
1.0 7.0 3.0 4.0 5.0 10.0 5.0 8.0 8.0 7.0 9.0 6.0 6.0 10.0 5.0 8.0 6.0 3.0 2.0 0.0 7.0 0.0 4.0 -273.0 1.0 6.0 4.0 6.0 0.0 8.0 4.0 1.0 8.0 0.0 3.0 7.0 6.0 8.0 1.0 7.0 10.0 8.0 8.0 10.0 8.0 4.0 2.0 2.0 7.0 0.0 2.0 4.0 2.0 7.0 5.0 
4.0 8.0 9.0 10.0 1.0 6.0 10.0 1.0 5.0 2.0 6.0 1.0 4.0 5.0 1.0 3.0 8.0 9.0 1.0 1.0 9.0 2.0 5.0 1.0 -278.0 8.0 7.0 2.0 3.0 6.0 6.0 8.0 2.0 0.0 2.0 7.0 4.0 10.0 1.0 7.0 10.0 9.0 2.0 1.0 8.0 6.0 5.0 7.0 10.0 3.0 6.0 7.0 10.0 2.0 7.0 
0.0 7.0 2.0 1.0 5.0 5.0 5.0 2.0 6.0 8.0 0.0 10.0 6.0 9.0 5.0 0.0 10.0 4.0 0.0 3.0 10.0 10.0 1.0 6.0 8.0 -270.0 10.0 6.0 8.0 8.0 5.0 3.0 4.0 3.0 6.0 1.0 10.0 3.0 5.0 2.0 6.0 8.0 2.0 1.0 9.0 6.0 1.0 1.0 10.0 9.0 5.0 2.0 1.0 10.0 2.0 
1.0 10.0 10.0 0.0 0.0 3.0 8.0 9.0 4.0 5.0 9.0 5.0 7.0 5.0 1.0 10.0 1.0 5.0 4.0 3.0 6.0 5.0 3.0 4.0 7.0 10.0 -284.0 7.0 8.0 5.0 10.0 10.0 0.0 9.0 3.0 4.0 10.0 0.0 4.0 1.0 6.0 7.0 0.0 2.0 7.0 3.0 10.0 9.0 3.0 6.0 2.0 9.0 4.0 4.0 6.0 
2.0 5.0 10.0 5.0 5.0 3.0 10.0 7.0 8.0 9.0 10.0 6.0 2.0 0.0 0.0 4.0 3.0 10.0 2.0 3.0 1.0 1.0 2.0 6.0 2.0 6.0 7.0 -235.0 5.0 1.0 0.0 9.0 4.0 1.0 8.0 2.0 4.0 7.0 4.0 6.0 8.0 4.0 3.0 1.0 0.0 2.0 1.0 3.0 1.0 3.0 3.0 8.0 9.0 2.0 7.0 
3.0 3.0 7.0 3.0 1.0 0.0 6.0 3.0 2.0 0.0 7.0 3.0 10.0 7.0 10.0 9.0 4.0 6.0 5.0 2.0 7.0 9.0 1.0 0.0 3.0 8.0 8.0 5.0 -272.0 9.0 2.0 4.0 4.0 4.0 8.0 7.0 4.0 4.0 9.0 2.0 0.0 4.0 6.0 6.0 5.0 1.0 10.0 5.0 3.0 7.0 9.0 10.0 8.0 8.0 1.0 
3.0 3.0 5.0 6.0 1.0 10.0 3.0 10.0 1.0 7.0 4.0 2.0 2.0 1.0 2.0 2.0 6.0 1.0 7.0 6.0 0.0 9.0 5.0 8.0 6.0 8.0 5.0 1.0 9.0 -248.0 1.0 5.0 7.0 7.0 9.0 4.0 8.0 3.0 3.0 1.0 8.0 7.0 10.0 2.0 6.0 3.0 4.0 7.0 3.0 2.0 0.0 4.0 2.0 3.0 6.0 
1.0 1.0 10.0 3.0 6.0 7.0 1.0 2.0 9.0 3.0 4.0 10.0 1.0 0.0 7.0 3.0 7.0 8.0 7.0 1.0 2.0 9.0 9.0 4.0 6.0 5.0 10.0 0.0 2.0 1.0 -264.0 4.0 3.0 4.0 7.0 9.0 3.0 0.0 6.0 3.0 2.0 7.0 8.0 4.0 1.0 10.0 6.0 3.0 7.0 5.0 2.0 8.0 9.0 6.0 8.0 
2.0 10.0 1.0 9.0 1.0 6.0 2.0 7.0 0.0 9.0 1.0 10.0 0.0 1.0 6.0 1.0 8.0 1.0 3.0 4.0 9.0 8.0 5.0 1.0 8.0 3.0 10.0 9.0 4.0 5.0 4.0 -268.0 10.0 1.0 6.0 1.0 3.0 3.0 10.0 9.0 10.0 7.0 2.0 1.0 7.0 7.0 2.0 2.0 0.0 10.0 5.0 3.0 9.0 5.0 7.0 
9.0 4.0 3.0 6.0 8.0 8.0 9.0 2.0 4.0 0.0 4.0 2.0 7.0 8.0 6.0 4.0 0.0 10.0 6.0 2.0 1.0 8.0 0.0 8.0 2.0 4.0 0.0 4.0 4.0 7.0 3.0 10.0 -276.0 5.0 6.0 9.0 1.0 6.0 8.0 9.0 3.0 2.0 10.0 9.0 2.0 8.0 7.0 2.0 2.0 8.0 5.0 10.0 8.0 2.0 1.0 
9.0 4.0 0.0 6.0 3.0 10.0 0.0 7.0 4.0 3.0 3.0 8.0 2.0 6.0 7.0 7.0 5.0 10.0 4.0 1.0 1.0 8.0 8.0 0.0 0.0 3.0 9.0 1.0 4.0 7.0 4.0 1.0 5.0 -239.0 5.0 6.0 5.0 7.0 3.0 0.0 2.0 0.0 3.0 7.0 3.0 3.0 0.0 6.0 10.0 10.0 6.0 4.0 4.0 5.0 0.0 
1.0 3.0 2.0 6.0 1.0 3.0 9.0 2.0 2.0 6.0 3.0 10.0 1.0 10.0 1.0 10.0 9.0 6.0 10.0 0.0 4.0 9.0 8.0 3.0 2.0 6.0 3.0 8.0 8.0 9.0 7.0 6.0 6.0 5.0 -267.0 9.0 1.0 7.0 6.0 8.0 9.0 4.0 2.0 2.0 5.0 0.0 9.0 4.0 10.0 1.0 4.0 3.0 3.0 0.0 1.0 
4.0 8.0 2.0 3.0 8.0 0.0 0.0 5.0 9.0 7.0 0.0 5.0 10.0 6.0 4.0 4.0 7.0 1.0 4.0 10.0 4.0 10.0 2.0 7.0 7.0 1.0 4.0 2.0 7.0 4.0 9.0 1.0 9.0 6.0 9.0 -279.0 10.0 4.0 4.0 10.0 9.0 9.0 10.0 4.0 2.0 7.0 2.0 4.0 5.0 10.0 3.0 1.0 1.0 4.0 1.0 
8.0 2.0 8.0 0.0 5.0 6.0 10.0 7.0 9.0 3.0 9.0 7.0 4.0 2.0 1.0 3.0 3.0 9.0 6.0 9.0 3.0 2.0 3.0 6.0 4.0 10.0 10.0 4.0 4.0 8.0 3.0 3.0 1.0 5.0 1.0 10.0 -297.0 2.0 2.0 9.0 10.0 5.0 4.0 4.0 8.0 4.0 9.0 0.0 8.0 10.0 5.0 9.0 7.0 7.0 6.0 
3.0 9.0 1.0 10.0 2.0 9.0 2.0 9.0 3.0 0.0 7.0 2.0 6.0 8.0 1.0 1.0 6.0 9.0 6.0 6.0 8.0 3.0 2.0 8.0 10.0 3.0 0.0 7.0 4.0 3.0 0.0 3.0 6.0 7.0 7.0 4.0 2.0 -236.0 1.0 0.0 8.0 4.0 0.0 5.0 1.0 9.0 7.0 3.0 7.0 3.0 1.0 5.0 0.0 0.0 5.0 
5.0 9.0 6.0 9.0 6.0 4.0 7.0 7.0 4.0 10.0 10.0 1.0 9.0 5.0 10.0 4.0 7.0 3.0 10.0 5.0 1.0 0.0 8.0 1.0 1.0 5.0 4.0 4.0 9.0 3.0 6.0 10.0 8.0 3.0 6.0 4.0 2.0 1.0 -285.0 4.0 3.0 1.0 5.0 3.0 0.0 5.0 6.0 8.0 2.0 2.0 8.0 5.0 7.0 10.0 9.0 
9.0 5.0 2.0 5.0 2.0 3.0 1.0 3.0 6.0 0.0 1.0 8.0 2.0 2.0 0.0 2.0 6.0 0.0 3.0 0.0 9.0 9.0 9.0 7.0 7.0 2.0 1.0 6.0 2.0 1.0 3.0 9.0 9.0 0.0 8.0 10.0 9.0 0.0 4.0 -256.0 7.0 5.0 3.0 9.0 0.0 9.0 7.0 9.0 9.0 9.0 4.0 4.0 7.0 9.0 0.0 
7.0 9.0 6.0 2.0 2.0 9.0 10.0 2.0 10.0 3.0 1.0 0.0 10.0 10.0 0.0 9.0 4.0 0.0 3.0 3.0 2.0 7.0 1.0 10.0 10.0 6.0 6.0 8.0 0.0 8.0 2.0 10.0 3.0 2.0 9.0 9.0 10.0 8.0 3.0 7.0 -287.0 8.0 1.0 7.0 9.0 8.0 3.0 7.0 7.0 4.0 1.0 5.0 2.0 0.0 4.0 
3.0 8.0 0.0 7.0 3.0 2.0 1.0 6.0 6.0 1.0 5.0 6.0 2.0 7.0 7.0 8.0 3.0 5.0 5.0 6.0 1.0 6.0 6.0 8.0 9.0 8.0 7.0 4.0 4.0 7.0 7.0 7.0 2.0 0.0 4.0 9.0 5.0 4.0 1.0 5.0 8.0 -259.0 4.0 3.0 5.0 8.0 5.0 6.0 0.0 5.0 8.0 10.0 0.0 2.0 0.0 
5.0 4.0 5.0 0.0 0.0 9.0 8.0 2.0 7.0 9.0 3.0 9.0 4.0 5.0 7.0 10.0 8.0 10.0 1.0 6.0 8.0 10.0 2.0 8.0 2.0 2.0 0.0 3.0 6.0 10.0 8.0 2.0 10.0 3.0 2.0 10.0 4.0 0.0 5.0 3.0 1.0 4.0 -280.0 3.0 5.0 0.0 5.0 1.0 8.0 10.0 8.0 0.0 9.0 8.0 8.0 
9.0 4.0 2.0 7.0 6.0 4.0 7.0 1.0 6.0 0.0 0.0 7.0 6.0 7.0 4.0 1.0 6.0 10.0 3.0 3.0 2.0 7.0 5.0 10.0 1.0 1.0 2.0 1.0 6.0 2.0 4.0 1.0 9.0 7.0 2.0 4.0 4.0 5.0 3.0 9.0 7.0 3.0 3.0 -234.0 8.0 0.0 3.0 5.0 5.0 0.0 3.0 3.0 10.0 5.0 1.0 
9.0 3.0 1.0 4.0 4.0 10.0 0.0 0.0 2.0 10.0 3.0 10.0 8.0 6.0 5.0 10.0 0.0 8.0 2.0 9.0 3.0 0.0 3.0 8.0 8.0 9.0 7.0 0.0 5.0 6.0 1.0 7.0 2.0 3.0 5.0 2.0 8.0 1.0 0.0 0.0 9.0 5.0 5.0 8.0 -258.0 1.0 1.0 1.0 7.0 10.0 2.0 4.0 10.0 10.0 3.0 
6.0 3.0 6.0 0.0 8.0 3.0 0.0 10.0 10.0 6.0 4.0 7.0 7.0 5.0 1.0 6.0 8.0 0.0 5.0 4.0 3.0 2.0 1.0 4.0 6.0 6.0 3.0 2.0 1.0 3.0 10.0 7.0 8.0 3.0 0.0 7.0 4.0 9.0 5.0 9.0 8.0 8.0 0.0 0.0 1.0 -255.0 6.0 9.0 1.0 8.0 1.0 10.0 3.0 5.0 3.0 
0.0 7.0 6.0 5.0 9.0 2.0 1.0 1.0 8.0 7.0 7.0 4.0 7.0 9.0 0.0 2.0 3.0 2.0 9.0 5.0 0.0 3.0 4.0 2.0 5.0 1.0 10.0 1.0 10.0 4.0 6.0 2.0 7.0 0.0 9.0 2.0 9.0 7.0 6.0 7.0 3.0 5.0 5.0 3.0 1.0 6.0 -255.0 8.0 0.0 1.0 4.0 9.0 5.0 10.0 6.0 
0.0 2.0 1.0 5.0 10.0 7.0 4.0 9.0 4.0 6.0 6.0 1.0 3.0 3.0 1.0 0.0 4.0 8.0 0.0 9.0 9.0 10.0 1.0 2.0 7.0 1.0 9.0 3.0 5.0 7.0 3.0 2.0 2.0 6.0 4.0 4.0 0.0 3.0 8.0 9.0 7.0 6.0 1.0 5.0 1.0 9.0 8.0 -252.0 4.0 8.0 3.0 2.0 6.0 6.0 8.0 
10.0 8.0 9.0 4.0 3.0 0.0 8.0 0.0 3.0 0.0 9.0 5.0 7.0 10.0 10.0 2.0 7.0 5.0 1.0 3.0 6.0 10.0 1.0 7.0 10.0 10.0 3.0 1.0 3.0 3.0 7.0 0.0 2.0 10.0 10.0 5.0 8.0 7.0 2.0 9.0 7.0 0.0 8.0 5.0 7.0 1.0 0.0 4.0 -271.0 8.0 8.0 0.0 1.0 4.0 0.0 
7.0 0.0 5.0 9.0 7.0 2.0 4.0 7.0 7.0 10.0 3.0 9.0 5.0 7.0 6.0 10.0 7.0 6.0 4.0 3.0 3.0 8.0 4.0 0.0 3.0 9.0 6.0 3.0 7.0 2.0 5.0 10.0 8.0 10.0 1.0 10.0 10.0 3.0 2.0 9.0 4.0 5.0 10.0 0.0 10.0 8.0 1.0 8.0 8.0 -315.0 3.0 7.0 1.0 9.0 10.0 
6.0 0.0 0.0 4.0 9.0 8.0 1.0 1.0 1.0 7.0 2.0 8.0 8.0 6.0 9.0 6.0 3.0 6.0 3.0 3.0 3.0 5.0 4.0 2.0 6.0 5.0 2.0 3.0 9.0 0.0 2.0 5.0 5.0 6.0 4.0 3.0 5.0 1.0 8.0 4.0 1.0 8.0 8.0 3.0 2.0 1.0 4.0 3.0 8.0 3.0 -235.0 3.0 7.0 2.0 9.0 
4.0 0.0 2.0 5.0 7.0 5.0 6.0 6.0 5.0 1.0 7.0 2.0 2.0 7.0 5.0 8.0 6.0 5.0 5.0 2.0 5.0 8.0 10.0 4.0 7.0 2.0 9.0 8.0 10.0 4.0 8.0 3.0 10.0 4.0 3.0 1.0 9.0 5.0 5.0 4.0 5.0 10.0 0.0 3.0 4.0 10.0 9.0 2.0 0.0 7.0 3.0 -287.0 5.0 10.0 10.0 
10.0 0.0 1.0 4.0 7.0 0.0 0.0 5.0 9.0 4.0 2.0 6.0 10.0 1.0 7.0 7.0 0.0 2.0 10.0 1.0 9.0 2.0 6.0 2.0 10.0 1.0 4.0 9.0 8.0 2.0 9.0 9.0 8.0 4.0 3.0 1.0 7.0 0.0 7.0 7.0 2.0 0.0 9.0 10.0 10.0 3.0 5.0 6.0 1.0 1.0 7.0 5.0 -269.0 10.0 6.0 
4.0 0.0 7.0 7.0 10.0 7.0 2.0 6.0 3.0 8.0 10.0 3.0 6.0 0.0 6.0 7.0 4.0 6.0 4.0 4.0 3.0 1.0 6.0 7.0 2.0 10.0 4.0 2.0 8.0 3.0 6.0 5.0 2.0 5.0 0.0 4.0 7.0 0.0 10.0 9.0 0.0 2.0 8.0 5.0 10.0 5.0 10.0 6.0 4.0 9.0 2.0 10.0 10.0 -281.0 2.0 
3.0 0.0 9.0 0.0 0.0 2.0 0.0 4.0 6.0 10.0 6.0 10.0 7.0 10.0 6.0 5.0 3.0 3.0 6.0 6.0 3.0 9.0 0.0 5.0 7.0 2.0 6.0 7.0 1.0 6.0 8.0 7.0 1.0 0.0 1.0 1.0 6.0 5.0 9.0 0.0 4.0 0.0 8.0 1.0 3.0 3.0 6.0 8.0 0.0 10.0 9.0 10.0 6.0 2.0 -250.0 

